1 1 2 0
1 -1 -3 0
1 4 -5 0
1 4 -6 0
1 -4 2 0
1 -4 1 0
1 -4 7 0
1 4 8 0
1 9 -10 0
1 9 11 0
1 9 -6 0
1 9 -12 0
1 -9 -13 0
1 9 -7 0
1 -9 8 0
1 11 10 0
1 -11 -14 0
1 -11 6 0
1 -11 -2 0
1 -11 -12 0
1 -11 7 0
1 2 -15 0
1 -2 16 0
1 2 11 0
1 2 -4 0
1 -2 17 0
1 -2 -1 0
1 -8 -18 0
1 -8 -15 0
1 -8 16 0
1 8 4 0
1 -8 19 0
1 -8 -20 0
1 8 9 0
1 -6 -15 0
1 -6 21 0
1 6 22 0
1 6 19 0
1 6 -23 0
1 -6 9 0
1 -6 1 0
1 6 7 0
1 -7 21 0
1 -7 11 0
1 -7 -4 0
1 -7 -23 0
1 -7 -24 0
1 -7 1 0
1 -7 25 0
1 20 -10 0
1 20 -26 0
1 -20 -2 0
1 -20 -13 0
1 20 -24 0
1 -26 10 0
1 26 27 0
1 26 2 0
1 -26 -13 0
1 26 20 0
1 28 10 0
1 -28 -16 0
1 28 29 0
1 -28 -2 0
1 -28 -12 0
1 -28 30 0
1 28 -23 0
1 -16 -10 0
1 16 27 0
1 16 -21 0
1 -16 2 0
1 -16 28 0
1 16 30 0
1 16 -31 0
1 13 -32 0
1 -13 -33 0
1 13 11 0
1 13 -34 0
1 -13 -20 0
1 -13 9 0
1 -13 35 0
1 27 32 0
1 -27 16 0
1 27 26 0
1 -27 -11 0
1 27 13 0
1 -27 20 0
1 -27 9 0
1 -27 -35 0
1 12 36 0
1 12 -15 0
1 12 16 0
1 -12 26 0
1 -12 19 0
1 12 -28 0
1 12 9 0
1 -12 -35 0
1 -10 -15 0
1 10 -11 0
1 -10 37 0
1 -10 -12 0
1 -10 38 0
1 -10 -19 0
1 -10 -9 0
1 10 35 0
1 -34 33 0
1 -34 29 0
1 -34 -39 0
1 -34 -19 0
1 34 -30 0
1 -33 27 0
1 33 -15 0
1 -33 -39 0
1 -33 -13 0
1 -33 -30 0
1 -40 27 0
1 40 29 0
1 32 29 0
1 -32 39 0
1 -32 -40 0
1 31 -32 0
1 -31 33 0
1 31 -16 0
1 -31 39 0
1 31 -41 0
1 -31 -40 0
1 31 -42 0
1 39 -33 0
1 39 -16 0
1 39 43 0
1 -39 40 0
1 -39 31 0
1 39 -44 0
1 30 32 0
1 -30 -33 0
1 -30 -16 0
1 30 -41 0
1 30 -37 0
1 -30 34 0
1 30 -28 0
1 30 45 0
1 -30 -46 0
1 -30 -35 0
1 -29 16 0
1 -29 41 0
1 29 47 0
1 29 34 0
1 -29 28 0
1 -29 46 0
1 -29 -35 0
1 -3 -48 0
1 -3 -49 0
1 5 -50 0
1 -5 -51 0
1 -5 -52 0
1 5 -48 0
1 5 -53 0
1 -54 51 0
1 -54 55 0
1 54 14 0
1 -54 -48 0
1 -54 56 0
1 -54 -57 0
1 -54 58 0
1 -14 -51 0
1 -14 55 0
1 -14 -59 0
1 14 11 0
1 14 60 0
1 14 56 0
1 14 57 0
1 -14 54 0
1 -51 61 0
1 -51 5 0
1 -51 53 0
1 51 62 0
1 51 24 0
1 -51 -54 0
1 -51 3 0
1 53 63 0
1 53 -21 0
1 53 22 0
1 -53 -14 0
1 -53 5 0
1 -53 62 0
1 -53 -23 0
1 53 -24 0
1 -53 -54 0
1 53 -3 0
1 50 63 0
1 -50 64 0
1 -50 -14 0
1 -50 5 0
1 50 48 0
1 50 -65 0
1 50 54 0
1 48 50 0
1 48 63 0
1 -48 -64 0
1 48 -14 0
1 -48 5 0
1 -48 -66 0
1 48 -67 0
1 24 51 0
1 24 55 0
1 -24 22 0
1 -24 -59 0
1 24 6 0
1 24 56 0
1 -24 -20 0
1 -22 -51 0
1 -22 26 0
1 -22 -59 0
1 22 -6 0
1 22 -53 0
1 -22 56 0
1 22 -57 0
1 -22 -24 0
1 22 -7 0
1 23 68 0
1 -23 69 0
1 23 56 0
1 23 57 0
1 23 70 0
1 23 -71 0
1 -21 -57 0
1 21 16 0
1 -21 64 0
1 -21 -59 0
1 -21 -68 0
1 -21 -6 0
1 21 56 0
1 -21 -23 0
1 21 71 0
1 -21 7 0
1 59 -72 0
1 -59 -36 0
1 -59 -15 0
1 59 -22 0
1 -59 -73 0
1 59 -14 0
1 -59 74 0
1 59 -24 0
1 59 54 0
1 57 -72 0
1 -57 -38 0
1 -57 19 0
1 -57 -24 0
1 -57 54 0
1 -55 -75 0
1 -55 63 0
1 -55 76 0
1 -55 -22 0
1 55 74 0
1 55 -24 0
1 55 -54 0
1 56 75 0
1 -56 -63 0
1 -56 21 0
1 56 -55 0
1 56 -22 0
1 56 -74 0
1 56 -77 0
1 -56 62 0
1 56 78 0
1 56 -54 0
1 -19 15 0
1 -19 -69 0
1 19 -6 0
1 19 -2 0
1 19 12 0
1 -19 -34 0
1 -19 62 0
1 -19 7 0
1 15 -10 0
1 -15 33 0
1 15 68 0
1 15 69 0
1 15 6 0
1 15 -2 0
1 15 12 0
1 -15 57 0
1 15 70 0
1 -15 7 0
1 -15 8 0
1 -38 -18 0
1 38 -10 0
1 -38 -36 0
1 -38 59 0
1 38 68 0
1 -38 -69 0
1 38 -17 0
1 -38 -12 0
1 -38 -40 0
1 -38 -77 0
1 38 -57 0
1 38 70 0
1 -38 -71 0
1 36 32 0
1 -36 59 0
1 36 -68 0
1 36 -69 0
1 36 -79 0
1 36 -17 0
1 36 57 0
1 36 70 0
1 -36 25 0
1 -69 36 0
1 69 -47 0
1 -69 80 0
1 69 -37 0
1 69 -38 0
1 -69 -23 0
1 -69 71 0
1 -69 -46 0
1 71 -36 0
1 71 -15 0
1 -71 -21 0
1 71 47 0
1 -71 37 0
1 -71 38 0
1 -71 -19 0
1 71 -23 0
1 -71 81 0
1 -71 -46 0
1 -71 35 0
1 -68 -72 0
1 -68 -82 0
1 68 -83 0
1 -68 74 0
1 68 -38 0
1 68 -19 0
1 68 23 0
1 68 84 0
1 70 36 0
1 70 -15 0
1 70 21 0
1 -70 19 0
1 -70 23 0
1 70 85 0
1 -37 10 0
1 -37 -29 0
1 37 17 0
1 37 -13 0
1 37 30 0
1 37 -71 0
1 37 -35 0
1 -35 -72 0
1 35 -10 0
1 35 27 0
1 -35 -69 0
1 -35 -79 0
1 -35 17 0
1 35 -13 0
1 -35 -30 0
1 35 25 0
1 -47 -18 0
1 47 -86 0
1 47 87 0
1 -47 -29 0
1 -47 69 0
1 47 83 0
1 -47 -79 0
1 -47 -88 0
1 47 -25 0
1 -46 86 0
1 46 -29 0
1 46 47 0
1 -46 17 0
1 -46 -88 0
1 -46 89 0
1 -46 30 0
1 46 71 0
1 17 90 0
1 17 -91 0
1 17 37 0
1 -17 -2 0
1 17 -92 0
1 17 -93 0
1 17 -44 0
1 -17 46 0
1 17 35 0
1 -18 -91 0
1 18 41 0
1 -18 -47 0
1 18 17 0
1 -18 38 0
1 18 -93 0
1 79 94 0
1 -79 -6 0
1 -79 37 0
1 79 -95 0
1 79 -96 0
1 79 -25 0
1 -25 -36 0
1 25 90 0
1 -25 -97 0
1 25 -79 0
1 25 37 0
1 25 7 0
1 25 81 0
1 -25 -46 0
1 -25 -98 0
1 -25 35 0
1 41 18 0
1 -41 -86 0
1 -41 29 0
1 -41 17 0
1 41 30 0
1 -41 44 0
1 -44 18 0
1 44 -86 0
1 44 87 0
1 -44 -17 0
1 44 88 0
1 -44 -30 0
1 44 31 0
1 91 18 0
1 -91 -86 0
1 -91 94 0
1 -91 -89 0
1 -91 -45 0
1 -91 -42 0
1 93 -87 0
1 -93 -43 0
1 -93 -89 0
1 93 -96 0
1 -89 99 0
1 -89 -100 0
1 -89 -41 0
1 89 -47 0
1 89 101 0
1 89 -13 0
1 -89 -102 0
1 -89 103 0
1 89 -93 0
1 -89 -44 0
1 -89 46 0
1 87 27 0
1 87 104 0
1 87 -100 0
1 87 91 0
1 -87 41 0
1 87 -47 0
1 87 -101 0
1 -87 103 0
1 -87 -93 0
1 -87 -44 0
1 87 46 0
1 88 86 0
1 88 105 0
1 -88 -90 0
1 88 -91 0
1 -88 41 0
1 -88 47 0
1 88 12 0
1 88 101 0
1 -88 -106 0
1 88 107 0
1 88 -95 0
1 88 93 0
1 -88 -46 0
1 -86 108 0
1 86 99 0
1 -86 105 0
1 -86 -90 0
1 -86 47 0
1 -86 -101 0
1 -86 -46 0
1 -100 -90 0
1 -103 87 0
1 -103 109 0
1 -103 100 0
1 103 -43 0
1 103 -89 0
1 -103 -45 0
1 103 -95 0
1 103 42 0
1 -104 87 0
1 104 -109 0
1 104 -105 0
1 -104 110 0
1 -104 -89 0
1 -104 45 0
1 104 42 0
1 110 -87 0
1 -110 -104 0
1 -110 109 0
1 -110 43 0
1 110 -89 0
1 -110 42 0
1 -42 104 0
1 -42 100 0
1 -42 43 0
1 -42 111 0
1 -42 -103 0
1 -42 -93 0
1 -42 -112 0
1 43 -113 0
1 -43 -104 0
1 -43 39 0
1 -43 114 0
1 43 91 0
1 -43 110 0
1 45 -99 0
1 45 -109 0
1 -45 -91 0
1 -45 -110 0
1 -45 30 0
1 -45 -103 0
1 -109 113 0
1 109 99 0
1 109 -29 0
1 -109 -115 0
1 -109 100 0
1 109 91 0
1 109 -116 0
1 49 -117 0
1 49 -118 0
1 49 -3 0
1 -52 -117 0
1 -52 119 0
1 52 -5 0
1 52 -120 0
1 52 -118 0
1 -52 49 0
1 58 -121 0
1 -58 60 0
1 58 120 0
1 -58 -118 0
1 58 122 0
1 -58 -123 0
1 60 -119 0
1 60 -121 0
1 60 -14 0
1 60 -120 0
1 60 122 0
1 -60 58 0
1 -118 119 0
1 118 124 0
1 -118 -60 0
1 118 52 0
1 -118 67 0
1 -118 65 0
1 118 -58 0
1 -118 -49 0
1 -119 -118 0
1 119 -124 0
1 -119 -67 0
1 -119 -65 0
1 119 58 0
1 119 -49 0
1 120 -125 0
1 -120 -117 0
1 -120 60 0
1 -120 -52 0
1 -120 49 0
1 -117 126 0
1 -117 60 0
1 117 52 0
1 117 -120 0
1 -117 -58 0
1 117 49 0
1 65 50 0
1 65 121 0
1 65 118 0
1 -65 -24 0
1 65 -123 0
1 124 50 0
1 -124 -119 0
1 -124 -22 0
1 -124 -121 0
1 -124 -48 0
1 -124 118 0
1 124 -65 0
1 124 -123 0
1 67 -50 0
1 -67 64 0
1 67 127 0
1 67 128 0
1 -67 -118 0
1 -67 -122 0
1 -67 123 0
1 -64 129 0
1 -64 50 0
1 64 121 0
1 -64 -130 0
1 -64 -127 0
1 -64 122 0
1 64 123 0
1 123 63 0
1 -123 -124 0
1 123 60 0
1 -123 -131 0
1 -123 77 0
1 -123 67 0
1 -123 58 0
1 130 -124 0
1 130 60 0
1 130 123 0
1 130 67 0
1 130 58 0
1 122 132 0
1 122 60 0
1 122 131 0
1 122 -58 0
1 121 -132 0
1 -121 60 0
1 121 65 0
1 -121 -58 0
1 62 -129 0
1 -62 51 0
1 62 -130 0
1 62 -48 0
1 62 -53 0
1 -62 56 0
1 62 19 0
1 62 -123 0
1 -62 -133 0
1 63 55 0
1 63 -130 0
1 63 127 0
1 63 128 0
1 -63 53 0
1 -63 56 0
1 63 62 0
1 -63 -123 0
1 -63 -133 0
1 77 75 0
1 77 134 0
1 -77 55 0
1 -77 -130 0
1 -77 -127 0
1 77 128 0
1 -77 66 0
1 77 38 0
1 77 -135 0
1 77 -123 0
1 -77 -133 0
1 75 -129 0
1 -75 -36 0
1 75 -134 0
1 75 61 0
1 -75 55 0
1 -75 130 0
1 75 -127 0
1 75 -66 0
1 -75 -77 0
1 -75 135 0
1 75 123 0
1 75 133 0
1 129 136 0
1 -129 -75 0
1 -129 64 0
1 -129 83 0
1 -129 -128 0
1 -129 -74 0
1 129 -77 0
1 129 -62 0
1 -129 67 0
1 -129 84 0
1 -128 -63 0
1 128 -137 0
1 128 -83 0
1 128 -138 0
1 -128 74 0
1 128 -67 0
1 133 75 0
1 133 -139 0
1 133 -127 0
1 -133 -137 0
1 133 -140 0
1 -133 131 0
1 133 77 0
1 -133 62 0
1 -127 64 0
1 -127 -141 0
1 -127 -140 0
1 127 -131 0
1 127 -77 0
1 -127 62 0
1 -127 -67 0
1 -127 -142 0
1 127 -133 0
1 -127 -143 0
1 -74 72 0
1 -74 -134 0
1 74 61 0
1 -74 55 0
1 -74 -59 0
1 -74 68 0
1 74 -37 0
1 74 131 0
1 -74 66 0
1 -74 135 0
1 74 56 0
1 74 -57 0
1 -74 70 0
1 -72 -129 0
1 72 132 0
1 72 134 0
1 72 -59 0
1 -72 68 0
1 -72 128 0
1 72 135 0
1 72 57 0
1 72 35 0
1 -83 -129 0
1 -83 -134 0
1 83 -61 0
1 83 73 0
1 83 47 0
1 -83 128 0
1 83 -66 0
1 -83 135 0
1 83 -144 0
1 -83 -70 0
1 -84 -68 0
1 84 128 0
1 -84 66 0
1 -84 -78 0
1 84 -46 0
1 61 -75 0
1 61 -51 0
1 61 -97 0
1 -61 77 0
1 61 -96 0
1 -61 -81 0
1 61 84 0
1 -135 -72 0
1 135 75 0
1 -135 -94 0
1 -135 -97 0
1 -135 83 0
1 -135 -74 0
1 135 145 0
1 -135 146 0
1 135 -81 0
1 135 -84 0
1 -134 50 0
1 134 75 0
1 -134 147 0
1 -134 74 0
1 134 66 0
1 -134 -77 0
1 134 148 0
1 134 142 0
1 -134 -84 0
1 -66 -75 0
1 -66 149 0
1 66 -48 0
1 -66 150 0
1 -66 77 0
1 66 -146 0
1 66 -148 0
1 -66 142 0
1 -66 -84 0
1 97 68 0
1 -97 -79 0
1 97 -135 0
1 97 -78 0
1 -97 144 0
1 97 70 0
1 97 -71 0
1 -97 -25 0
1 81 -76 0
1 81 -68 0
1 -81 -71 0
1 -81 69 0
1 -81 -79 0
1 -81 78 0
1 81 144 0
1 -81 -70 0
1 81 44 0
1 81 142 0
1 -81 -25 0
1 -94 61 0
1 94 -76 0
1 -94 73 0
1 -94 82 0
1 94 -149 0
1 -94 -80 0
1 94 -79 0
1 94 -135 0
1 94 -78 0
1 94 144 0
1 94 151 0
1 94 -25 0
1 96 -76 0
1 -96 -82 0
1 96 -79 0
1 96 -78 0
1 -96 -144 0
1 96 93 0
1 96 85 0
1 -96 148 0
1 -96 151 0
1 73 144 0
1 -73 152 0
1 73 -105 0
1 73 -59 0
1 -73 153 0
1 73 94 0
1 73 154 0
1 -73 95 0
1 -144 -90 0
1 -144 -73 0
1 144 -94 0
1 144 97 0
1 -144 83 0
1 -144 -154 0
1 -144 95 0
1 144 96 0
1 -76 155 0
1 76 156 0
1 76 -94 0
1 -76 97 0
1 -76 83 0
1 76 -78 0
1 76 -81 0
1 -78 157 0
1 -78 76 0
1 -78 156 0
1 78 56 0
1 78 -158 0
1 -78 146 0
1 78 84 0
1 90 100 0
1 -90 73 0
1 90 -156 0
1 90 -82 0
1 90 80 0
1 90 -79 0
1 90 88 0
1 -90 -95 0
1 -90 -25 0
1 95 18 0
1 95 90 0
1 95 -79 0
1 95 -88 0
1 95 -144 0
1 95 146 0
1 -95 -151 0
1 95 -25 0
1 105 -159 0
1 105 -104 0
1 -105 -160 0
1 -105 -82 0
1 -105 -80 0
1 105 161 0
1 -105 -92 0
1 105 88 0
1 105 -144 0
1 105 151 0
1 105 98 0
1 107 86 0
1 -107 -73 0
1 -107 82 0
1 107 -80 0
1 107 161 0
1 -107 -92 0
1 107 88 0
1 -107 110 0
1 107 151 0
1 -107 98 0
1 80 162 0
1 -80 105 0
1 -80 -90 0
1 -80 -69 0
1 80 -163 0
1 80 -164 0
1 80 -101 0
1 80 95 0
1 80 96 0
1 -80 151 0
1 -151 165 0
1 -151 162 0
1 151 99 0
1 151 -105 0
1 151 -164 0
1 -151 -107 0
1 151 -96 0
1 -151 71 0
1 82 166 0
1 82 90 0
1 82 -68 0
1 82 94 0
1 82 -154 0
1 82 -95 0
1 85 -165 0
1 85 166 0
1 -85 152 0
1 -85 -105 0
1 -85 90 0
1 85 167 0
1 -85 154 0
1 85 -70 0
1 -85 -168 0
1 -99 159 0
1 99 -86 0
1 99 -109 0
1 99 80 0
1 99 161 0
1 99 -92 0
1 99 88 0
1 -99 -89 0
1 99 151 0
1 99 98 0
1 -101 159 0
1 -101 99 0
1 -101 -87 0
1 101 109 0
1 -101 -80 0
1 101 -161 0
1 -101 -92 0
1 -101 154 0
1 101 -89 0
1 101 151 0
1 162 166 0
1 -162 -108 0
1 162 109 0
1 162 -80 0
1 -162 -161 0
1 162 -116 0
1 -162 106 0
1 -162 -102 0
1 162 45 0
1 162 -151 0
1 -162 98 0
1 116 159 0
1 116 -162 0
1 116 -169 0
1 -116 109 0
1 116 -80 0
1 116 161 0
1 -116 92 0
1 116 -106 0
1 -116 -98 0
1 -92 -113 0
1 92 -159 0
1 92 -162 0
1 92 170 0
1 -92 -111 0
1 92 -17 0
1 -92 101 0
1 -92 -171 0
1 -159 113 0
1 159 -162 0
1 159 -99 0
1 159 -170 0
1 -159 -111 0
1 -159 116 0
1 159 -92 0
1 159 -101 0
1 -159 107 0
1 -161 162 0
1 -161 -99 0
1 -161 105 0
1 161 170 0
1 -161 79 0
1 -161 -101 0
1 -161 107 0
1 161 171 0
1 -161 -172 0
1 -98 -165 0
1 -98 -162 0
1 98 -99 0
1 -98 170 0
1 98 -164 0
1 -98 -116 0
1 98 -161 0
1 98 -171 0
1 -98 25 0
1 -98 -172 0
1 -113 165 0
1 113 159 0
1 113 169 0
1 -113 -109 0
1 113 111 0
1 -113 92 0
1 -113 45 0
1 113 -42 0
1 111 159 0
1 -111 -108 0
1 -111 109 0
1 -111 43 0
1 111 164 0
1 -111 92 0
1 -111 -106 0
1 -173 -159 0
1 173 -169 0
1 173 -114 0
1 173 -174 0
1 -173 106 0
1 -173 102 0
1 -173 112 0
1 173 -172 0
1 174 -159 0
1 -174 169 0
1 174 115 0
1 174 -114 0
1 -174 -175 0
1 174 -106 0
1 174 -102 0
1 174 176 0
1 174 112 0
1 -102 -113 0
1 102 169 0
1 102 177 0
1 102 178 0
1 102 174 0
1 102 -116 0
1 -102 -89 0
1 102 179 0
1 102 -180 0
1 102 173 0
1 169 162 0
1 -169 -111 0
1 -169 -179 0
1 169 180 0
1 -106 113 0
1 106 -162 0
1 -106 -108 0
1 -106 181 0
1 -106 -170 0
1 106 174 0
1 -106 -116 0
1 106 88 0
1 -106 -173 0
1 -108 113 0
1 -108 162 0
1 -108 174 0
1 108 116 0
1 108 -171 0
1 108 173 0
1 -180 169 0
1 180 178 0
1 -180 102 0
1 180 -176 0
1 180 112 0
1 -180 -171 0
1 178 169 0
1 178 -115 0
1 -178 -114 0
1 -178 170 0
1 178 -180 0
1 -179 -169 0
1 -179 -114 0
1 179 176 0
1 -179 112 0
1 -177 169 0
1 177 -115 0
1 -177 -114 0
1 -177 176 0
1 177 -179 0
1 -112 177 0
1 112 -114 0
1 -112 178 0
1 112 174 0
1 -112 -42 0
1 -112 -173 0
1 -114 -112 0
1 114 -43 0
1 -114 178 0
1 -114 -174 0
1 -114 179 0
1 -114 173 0
1 -176 -115 0
1 176 177 0
1 -176 -174 0
1 -176 179 0
1 -115 -109 0
1 115 177 0
1 -115 -174 0
1 -115 179 0
1 131 182 0
1 131 -130 0
1 131 -127 0
1 -131 -74 0
1 -131 -183 0
1 -131 -122 0
1 131 -133 0
1 -132 -72 0
1 132 121 0
1 132 130 0
1 132 -131 0
1 -132 -122 0
1 -140 -184 0
1 140 -127 0
1 140 185 0
1 140 -186 0
1 140 143 0
1 -143 126 0
1 143 -187 0
1 143 184 0
1 143 -127 0
1 143 140 0
1 143 125 0
1 -143 84 0
1 183 -132 0
1 183 137 0
1 183 -131 0
1 -183 -118 0
1 183 -142 0
1 -183 -143 0
1 -182 -132 0
1 -182 119 0
1 182 188 0
1 -182 -140 0
1 182 148 0
1 125 143 0
1 -126 117 0
1 -126 125 0
1 137 -129 0
1 -137 134 0
1 137 97 0
1 -137 66 0
1 137 186 0
1 142 -129 0
1 142 -182 0
1 142 -187 0
1 142 137 0
1 142 128 0
1 -142 66 0
1 142 185 0
1 142 -81 0
1 149 -182 0
1 149 187 0
1 -149 -94 0
1 -149 -184 0
1 149 141 0
1 149 -148 0
1 -149 186 0
1 148 136 0
1 -148 182 0
1 -148 -149 0
1 148 -184 0
1 -148 -141 0
1 -148 -138 0
1 148 -66 0
1 148 183 0
1 148 186 0
1 148 -139 0
1 186 -189 0
1 186 156 0
1 -186 149 0
1 186 -184 0
1 -186 137 0
1 -186 140 0
1 -186 190 0
1 186 -158 0
1 186 -146 0
1 -186 -148 0
1 -186 -191 0
1 184 160 0
1 -184 156 0
1 -184 -149 0
1 -184 137 0
1 184 190 0
1 -184 -148 0
1 -184 -186 0
1 184 -142 0
1 184 -143 0
1 185 187 0
1 185 122 0
1 -185 -140 0
1 -185 142 0
1 187 -189 0
1 187 149 0
1 187 -192 0
1 -187 -137 0
1 -187 190 0
1 -187 148 0
1 -156 136 0
1 -156 134 0
1 156 -61 0
1 156 76 0
1 156 90 0
1 156 -184 0
1 -156 -138 0
1 156 -135 0
1 156 -146 0
1 146 -61 0
1 146 -76 0
1 146 141 0
1 -146 -78 0
1 146 -95 0
1 -146 139 0
1 160 136 0
1 -160 -147 0
1 -160 -193 0
1 -160 105 0
1 160 -184 0
1 160 -141 0
1 160 -78 0
1 -160 -158 0
1 158 147 0
1 -158 -150 0
1 158 107 0
1 -158 -186 0
1 -158 -139 0
1 -136 129 0
1 136 194 0
1 -136 152 0
1 136 160 0
1 -136 149 0
1 -136 195 0
1 136 -167 0
1 136 154 0
1 -136 146 0
1 138 136 0
1 138 152 0
1 -138 160 0
1 -138 156 0
1 138 -149 0
1 -138 128 0
1 138 -167 0
1 -138 -154 0
1 138 -158 0
1 138 146 0
1 -138 148 0
1 139 160 0
1 -139 -141 0
1 139 195 0
1 -139 196 0
1 139 190 0
1 139 148 0
1 139 -133 0
1 141 194 0
1 -141 197 0
1 141 189 0
1 141 -160 0
1 141 -149 0
1 -141 127 0
1 141 -198 0
1 141 -190 0
1 141 -158 0
1 141 -146 0
1 -141 148 0
1 -152 -136 0
1 152 -147 0
1 -152 -189 0
1 -152 76 0
1 152 -73 0
1 -152 -138 0
1 152 -150 0
1 152 -154 0
1 -152 -145 0
1 152 -78 0
1 152 -85 0
1 -154 136 0
1 -154 147 0
1 -154 152 0
1 -154 193 0
1 154 -82 0
1 -154 150 0
1 -154 78 0
1 -154 -145 0
1 154 -144 0
1 154 -85 0
1 166 -197 0
1 166 147 0
1 166 -153 0
1 166 -82 0
1 -166 -138 0
1 -166 145 0
1 -166 157 0
1 166 199 0
1 166 -85 0
1 -167 -147 0
1 167 155 0
1 167 153 0
1 -167 82 0
1 -167 138 0
1 167 116 0
1 -167 -150 0
1 -167 145 0
1 -167 -199 0
1 193 152 0
1 -193 61 0
1 193 -160 0
1 -193 200 0
1 193 -175 0
1 -193 -167 0
1 -193 154 0
1 -193 145 0
1 -193 -158 0
1 -145 165 0
1 -145 166 0
1 -145 -193 0
1 145 -200 0
1 145 -164 0
1 145 167 0
1 -145 -154 0
1 145 135 0
1 145 158 0
1 -145 172 0
1 -147 -201 0
1 147 -166 0
1 147 -134 0
1 147 152 0
1 147 -160 0
1 -147 -200 0
1 -147 -167 0
1 147 -150 0
1 147 -154 0
1 -150 201 0
1 -150 194 0
1 -150 147 0
1 -150 -152 0
1 -150 -160 0
1 -150 -195 0
1 -150 -167 0
1 150 -66 0
1 -150 158 0
1 165 193 0
1 165 155 0
1 -165 -82 0
1 -165 -80 0
1 165 164 0
1 -165 145 0
1 165 157 0
1 -165 -199 0
1 -165 151 0
1 165 98 0
1 164 165 0
1 164 193 0
1 -164 -155 0
1 -164 111 0
1 164 -161 0
1 -164 157 0
1 -164 -199 0
1 164 -85 0
1 164 151 0
1 164 -98 0
1 172 -155 0
1 -172 -153 0
1 172 -202 0
1 -172 163 0
1 172 157 0
1 172 -203 0
1 -172 -173 0
1 -175 193 0
1 175 155 0
1 175 -153 0
1 175 -172 0
1 -175 174 0
1 175 163 0
1 175 -204 0
1 -175 145 0
1 175 157 0
1 -175 -168 0
1 175 -203 0
1 153 165 0
1 -153 -199 0
1 -153 167 0
1 153 -171 0
1 -199 165 0
1 199 -166 0
1 -199 181 0
1 199 -153 0
1 199 -205 0
1 -199 -171 0
1 155 165 0
1 -155 166 0
1 155 76 0
1 155 200 0
1 155 167 0
1 -155 157 0
1 -155 172 0
1 -157 -165 0
1 157 166 0
1 -157 155 0
1 157 200 0
1 157 -167 0
1 -157 78 0
1 -157 -206 0
1 157 172 0
1 171 -159 0
1 171 202 0
1 171 -92 0
1 -171 106 0
1 -171 168 0
1 -171 180 0
1 -171 -98 0
1 170 -159 0
1 -170 -108 0
1 -170 153 0
1 -170 163 0
1 -170 -92 0
1 170 203 0
1 -170 -199 0
1 170 -171 0
1 170 -98 0
1 205 181 0
1 -205 153 0
1 -205 -106 0
1 205 -206 0
1 205 203 0
1 -181 -177 0
1 181 207 0
1 181 -202 0
1 181 -168 0
1 -181 -199 0
1 181 205 0
1 -181 -203 0
1 163 170 0
1 163 175 0
1 -163 203 0
1 -163 -171 0
1 163 -172 0
1 -203 181 0
1 203 -170 0
1 -203 -175 0
1 203 -163 0
1 -203 -205 0
1 -203 151 0
1 -203 -171 0
1 -203 172 0
1 -202 -82 0
1 -202 -170 0
1 202 175 0
1 -202 205 0
1 -168 170 0
1 -168 -85 0
1 168 -205 0
1 -168 -171 0
1 189 -152 0
1 -189 188 0
1 -189 -141 0
1 189 190 0
1 189 186 0
1 189 -139 0
1 190 189 0
1 190 -208 0
1 190 188 0
1 190 209 0
1 190 -185 0
1 190 -139 0
1 197 -166 0
1 197 -196 0
1 -197 209 0
1 197 210 0
1 -197 191 0
1 -196 208 0
1 196 211 0
1 196 -167 0
1 196 -209 0
1 196 212 0
1 196 -139 0
1 212 -201 0
1 212 -197 0
1 -212 189 0
1 212 188 0
1 -212 -190 0
1 188 201 0
1 188 194 0
1 -188 197 0
1 -188 182 0
1 188 195 0
1 -188 196 0
1 -188 190 0
1 -188 -212 0
1 -209 -197 0
1 -209 -189 0
1 -209 -196 0
1 209 190 0
1 208 197 0
1 208 189 0
1 208 209 0
1 208 -126 0
1 -194 -165 0
1 194 -136 0
1 -194 -147 0
1 194 -188 0
1 -194 192 0
1 194 -141 0
1 -194 138 0
1 -194 -195 0
1 -194 -150 0
1 194 -139 0
1 195 136 0
1 195 -188 0
1 195 -192 0
1 -195 -141 0
1 -195 -164 0
1 195 210 0
1 195 -139 0
1 201 213 0
1 201 -192 0
1 -201 211 0
1 201 -204 0
1 -201 198 0
1 -201 -214 0
1 -201 -150 0
1 -201 212 0
1 -201 210 0
1 -201 172 0
1 204 -201 0
1 204 215 0
1 204 213 0
1 204 147 0
1 204 -188 0
1 204 211 0
1 204 175 0
1 -204 -198 0
1 204 214 0
1 204 -212 0
1 -191 201 0
1 191 194 0
1 191 -197 0
1 -191 -204 0
1 -191 -195 0
1 191 -196 0
1 191 206 0
1 211 -201 0
1 -211 -197 0
1 -211 -207 0
1 211 184 0
1 211 -200 0
1 -211 204 0
1 210 -201 0
1 210 197 0
1 -210 -192 0
1 -210 204 0
1 210 196 0
1 192 201 0
1 -192 -195 0
1 192 196 0
1 200 -215 0
1 200 193 0
1 -200 155 0
1 200 -211 0
1 -200 198 0
1 200 -214 0
1 200 150 0
1 200 145 0
1 200 -157 0
1 200 -191 0
1 -206 215 0
1 206 155 0
1 206 211 0
1 -206 -198 0
1 -206 214 0
1 -206 157 0
1 207 215 0
1 -207 181 0
1 207 -211 0
1 -207 198 0
1 213 -201 0
1 213 -200 0
1 -213 -214 0
1 213 206 0
1 214 201 0
1 214 213 0
1 -214 -200 0
1 -214 -138 0
1 -214 206 0
1 215 207 0
1 215 -200 0
1 -215 204 0
1 215 -206 0
1 -215 -139 0
1 198 -201 0
1 -198 215 0
1 198 207 0
1 198 200 0
1 198 -141 0
